0000000000000000
0000011111000000
0000011111000000
0000000111000000
0000000111000000
0000000111000000
0000000111000000
0000000111000000
0000000111000000
0000000111000000
0000000111000000
0000000000000000
0000000000000000
0000000000000000
0000000000000000
0000000000000000